(set-logic HORN)
(declare-fun state (Int Int Int Int Int Bool Bool (Array Int Int) (Array Int Int)) Bool)
(assert (forall ((|C_3| Int) (|E_3| Int) (|F_3| Int) (|v_6| Int) (|A_3| Int) (|.loc.8| Bool) (|.loc.9| Bool) (|B_3| (Array Int Int)) (|D| (Array Int Int)) (|.loc.16| Bool) (|.loc.15| Bool) (|.y.10| Int) (|.y.13| Int) (|.y.12| Int) (|.y.11| Int) (|.y.14| Int) (|.xtv.1| (Array Int Int)) (|.xiv.1| (Array Int Int))) (=> (and (and (not .loc.9) (not .loc.8)) (and (and (= A_3 (select D v_6)) (= C_3 0)) (<= E_3 F_3))) (state |C_3| |E_3| |F_3| |v_6| |A_3| |.loc.8| |.loc.9| |B_3| |D|))))
(assert (forall ((|C_3| Int) (|E_3| Int) (|F_3| Int) (|v_6| Int) (|A_3| Int) (|.loc.8| Bool) (|.loc.9| Bool) (|B_3| (Array Int Int)) (|D| (Array Int Int)) (|.loc.16| Bool) (|.loc.15| Bool) (|.y.10| Int) (|.y.13| Int) (|.y.12| Int) (|.y.11| Int) (|.y.14| Int) (|.xtv.1| (Array Int Int)) (|.xiv.1| (Array Int Int))) (=> (and (state |C_3| |E_3| |F_3| |v_6| |A_3| |.loc.8| |.loc.9| |B_3| |D|) (let ((.def_20 (not .loc.8))) (let ((.def_30 (select B_3 C_3))) (let ((.def_37 (not (<= F_3 C_3)))) (let ((.def_44 (not .loc.15))) (let ((.def_48 (not .loc.16))) (let ((.def_52 (= v_6 .y.13))) (let ((.def_55 (= F_3 .y.12))) (let ((.def_58 (= E_3 .y.11))) (let ((.def_60 (select B_3 v_6))) (let ((.def_62 (= .def_60 .y.14))) (let ((.def_64 (<= E_3 C_3))) (let ((.def_66 (= A_3 .def_60))) (let ((.def_82 (= (+ C_3 (* (- 1) .y.10)) (- 1)))) (and (not .loc.9) (or (or (or (and (and (and .loc.8 (and (not (= .def_30 0)) (and (and (= C_3 v_6) (= A_3 .def_30)) .def_37))) .loc.16) .def_44) (and (= .y.10 0) (and (and (and (and (and (and (and .def_20 (and .loc.15 .def_48)) .def_52) .def_55) .def_58) .def_62) .def_64) .def_66))) (and (and .def_66 (and .def_62 (and .def_58 (and .def_55 (and .def_52 (and .def_48 (and .loc.15 (and .loc.8 .def_37)))))))) .def_82)) (and (not .def_64) (and (= .y.14 (select (store B_3 C_3 0) v_6)) (and .def_82 (and .def_66 (and .def_58 (and .def_55 (and .def_52 (and .def_20 (and .def_44 .def_48))))))))))))))))))))))))) (state |.y.10| |.y.11| |.y.12| |.y.13| |.y.14| |.loc.15| |.loc.16| |.xtv.1| |.xiv.1|))))
(assert (forall ((|C_3| Int) (|E_3| Int) (|F_3| Int) (|v_6| Int) (|A_3| Int) (|.loc.8| Bool) (|.loc.9| Bool) (|B_3| (Array Int Int)) (|D| (Array Int Int)) (|.loc.16| Bool) (|.loc.15| Bool) (|.y.10| Int) (|.y.13| Int) (|.y.12| Int) (|.y.11| Int) (|.y.14| Int) (|.xtv.1| (Array Int Int)) (|.xiv.1| (Array Int Int))) (=> (state |C_3| |E_3| |F_3| |v_6| |A_3| |.loc.8| |.loc.9| |B_3| |D|) (not (and .loc.9 (not .loc.8))))))
(check-sat)
